(set-info :smt-lib-version 2.6)
(set-logic QF_BV)
(set-info :source gzip.model)
(set-info :category "industrial")
(set-info :status sat)
(declare-const P0 Bool)
(declare-const P1 Bool)
(declare-const P2 Bool)
(declare-const P3 Bool)
(declare-const P4 Bool)
(declare-const P5 Bool)
(declare-const P6 Bool)
(declare-const P7 Bool)
(declare-const P8 Bool)
(declare-const P9 Bool)
(declare-const P10 Bool)
(declare-const P11 Bool)
(declare-const P12 Bool)
(declare-const P13 (_ BitVec 2))
(assert (bvult P13 (_ bv3 2)))
(assert (or (not (= P5 false)) (not (= P4 false))))
(assert (or (not (= P5 false)) (not (= P6 false))))
(assert (or (not (= P5 false)) (not (= P7 false))))
(assert (or (not (= P5 false)) (not (= P8 false))))
(assert (or (not (= P5 false)) (not (= P9 false))))
(assert (or (not (= P5 false)) (not (= P10 false))))
(assert (or (not (= P5 false)) (not (= P11 false))))
(assert (or (not (= P6 false)) (not (= P4 false))))
(assert (or (not (= P6 false)) (not (= P5 false))))
(assert (or (not (= P6 false)) (not (= P7 false))))
(assert (or (not (= P6 false)) (not (= P8 false))))
(assert (or (not (= P6 false)) (not (= P9 false))))
(assert (or (not (= P6 false)) (not (= P10 false))))
(assert (or (not (= P6 false)) (not (= P11 false))))
(assert (or (not (= P7 false)) (not (= P4 false))))
(assert (or (not (= P7 false)) (not (= P5 false))))
(assert (or (not (= P7 false)) (not (= P6 false))))
(assert (or (not (= P7 false)) (not (= P8 false))))
(assert (or (not (= P7 false)) (not (= P9 false))))
(assert (or (not (= P7 false)) (not (= P10 false))))
(assert (or (not (= P7 false)) (not (= P11 false))))
(assert (or (not (= P8 false)) (not (= P4 false))))
(assert (or (not (= P8 false)) (not (= P5 false))))
(assert (or (not (= P8 false)) (not (= P6 false))))
(assert (or (not (= P8 false)) (not (= P7 false))))
(assert (or (not (= P8 false)) (not (= P9 false))))
(assert (or (not (= P8 false)) (not (= P10 false))))
(assert (or (not (= P8 false)) (not (= P11 false))))
(assert (or (not (= P9 false)) (not (= P4 false))))
(assert (or (not (= P9 false)) (not (= P5 false))))
(assert (or (not (= P9 false)) (not (= P6 false))))
(assert (or (not (= P9 false)) (not (= P7 false))))
(assert (or (not (= P9 false)) (not (= P8 false))))
(assert (or (not (= P9 false)) (not (= P10 false))))
(assert (or (not (= P9 false)) (not (= P11 false))))
(assert (or (not (= P10 false)) (not (= P4 false))))
(assert (or (not (= P10 false)) (not (= P5 false))))
(assert (or (not (= P10 false)) (not (= P6 false))))
(assert (or (not (= P10 false)) (not (= P7 false))))
(assert (or (not (= P10 false)) (not (= P8 false))))
(assert (or (not (= P10 false)) (not (= P9 false))))
(assert (or (not (= P10 false)) (not (= P11 false))))
(assert (or (not (= P11 false)) (not (= P4 false))))
(assert (or (not (= P11 false)) (not (= P5 false))))
(assert (or (not (= P11 false)) (not (= P6 false))))
(assert (or (not (= P11 false)) (not (= P7 false))))
(assert (or (not (= P11 false)) (not (= P8 false))))
(assert (or (not (= P11 false)) (not (= P9 false))))
(assert (or (not (= P11 false)) (not (= P10 false))))
(assert (or (not (= P12 false)) (not (= P4 false))))
(assert (or (not (= P12 false)) (not (= P5 false))))
(assert (or (not (= P12 false)) (not (= P6 false))))
(assert (or (not (= P12 false)) (not (= P7 false))))
(assert (or (not (= P12 false)) (not (= P8 false))))
(assert (or (not (= P12 false)) (not (= P9 false))))
(assert (or (not (= P12 false)) (not (= P10 false))))
(assert (or (not (= P12 false)) (not (= P11 false))))
(assert (or (not (= P13 (_ bv0 2))) (not (= P2 false))))
(assert (or (not (= P13 (_ bv1 2))) (= P2 false)))
(assert (not (= P13 (_ bv2 2))))
(assert (or (not (= P0 true)) (not (= P1 true)) (not (= P2 true)) (not (= P3 true)) (not (= P4 true)) (not (= P5 true)) (not (= P6 true)) (not (= P7 true)) (not (= P8 true)) (not (= P9 true)) (not (= P10 true)) (not (= P11 true)) (not (= P12 true))))
(check-sat)
(exit)
